p cnf 430 1488
-191 -28 0
-191 115 0
-191 157 0
-191 15 0
-191 -153 0
191 28 -115 -157 -15 153 0
-192 82 0
-192 -118 0
-192 139 0
-192 -179 0
-192 28 0
192 -82 118 -139 179 -28 0
-193 -159 0
-193 -39 0
-193 -132 0
-193 -171 0
-193 146 0
193 159 39 132 171 -146 0
-194 120 0
-194 -178 0
-194 138 0
-194 -117 0
-194 -40 0
194 -120 178 -138 117 40 0
-195 -25 0
-195 81 0
-195 -72 0
-195 73 0
-195 -74 0
195 25 -81 72 -73 74 0
191 192 193 194 195 0
-196 66 0
-196 151 0
-196 -65 0
-196 174 0
-196 -175 0
196 -66 -151 65 -174 175 0
-197 -147 0
-197 124 0
-197 -159 0
-197 -189 0
-197 -154 0
197 147 -124 159 189 154 0
-198 84 0
-198 -135 0
-198 -39 0
-198 -174 0
-198 112 0
198 -84 135 39 174 -112 0
-199 157 0
-199 -46 0
-199 189 0
-199 -147 0
-199 -166 0
199 -157 46 -189 147 166 0
-200 -165 0
-200 -24 0
-200 -107 0
-200 -20 0
-200 -125 0
200 165 24 107 20 125 0
196 197 198 199 200 0
-201 -156 0
-201 13 0
-201 -77 0
-201 1 0
-201 139 0
201 156 -13 77 -1 -139 0
-202 -74 0
-202 24 0
-202 81 0
-202 22 0
-202 2 0
202 74 -24 -81 -22 -2 0
-203 158 0
-203 51 0
-203 179 0
-203 -45 0
-203 113 0
203 -158 -51 -179 45 -113 0
-204 66 0
-204 -14 0
-204 -99 0
-204 37 0
-204 86 0
204 -66 14 99 -37 -86 0
-205 9 0
-205 -67 0
-205 106 0
-205 188 0
-205 -20 0
205 -9 67 -106 -188 20 0
201 202 203 204 205 0
-206 139 0
-206 -26 0
-206 -31 0
-206 144 0
-206 -89 0
206 -139 26 31 -144 89 0
-207 171 0
-207 165 0
-207 32 0
-207 -125 0
-207 -152 0
207 -171 -165 -32 125 152 0
-208 -134 0
-208 189 0
-208 108 0
-208 -185 0
-208 128 0
208 134 -189 -108 185 -128 0
-209 71 0
-209 -114 0
-209 52 0
-209 -27 0
-209 -72 0
209 -71 114 -52 27 72 0
-210 -66 0
-210 21 0
-210 -8 0
-210 -179 0
-210 -111 0
210 66 -21 8 179 111 0
206 207 208 209 210 0
-211 68 0
-211 -34 0
-211 74 0
-211 -163 0
-211 -20 0
211 -68 34 -74 163 20 0
-212 -3 0
-212 -124 0
-212 179 0
-212 169 0
-212 -170 0
212 3 124 -179 -169 170 0
-213 -94 0
-213 -75 0
-213 -144 0
-213 -56 0
-213 -53 0
213 94 75 144 56 53 0
-214 -121 0
-214 31 0
-214 -20 0
-214 130 0
-214 -172 0
214 121 -31 20 -130 172 0
-215 33 0
-215 146 0
-215 -47 0
-215 158 0
-215 133 0
215 -33 -146 47 -158 -133 0
211 212 213 214 215 0
-216 158 0
-216 5 0
-216 -165 0
-216 6 0
-216 38 0
216 -158 -5 165 -6 -38 0
-217 -28 0
-217 123 0
-217 -115 0
-217 -180 0
-217 -146 0
217 28 -123 115 180 146 0
-218 130 0
-218 142 0
-218 103 0
-218 52 0
-218 140 0
218 -130 -142 -103 -52 -140 0
-219 87 0
-219 78 0
-219 -80 0
-219 188 0
-219 -69 0
219 -87 -78 80 -188 69 0
-220 28 0
-220 51 0
-220 -32 0
-220 91 0
-220 155 0
220 -28 -51 32 -91 -155 0
216 217 218 219 220 0
-221 -13 0
-221 -73 0
-221 -41 0
-221 -46 0
-221 -119 0
221 13 73 41 46 119 0
-222 35 0
-222 -149 0
-222 -144 0
-222 45 0
-222 -93 0
222 -35 149 144 -45 93 0
-223 128 0
-223 169 0
-223 -125 0
-223 -152 0
-223 163 0
223 -128 -169 125 152 -163 0
-224 -64 0
-224 125 0
-224 -79 0
-224 -115 0
-224 53 0
224 64 -125 79 115 -53 0
-225 186 0
-225 -45 0
-225 -59 0
-225 -129 0
-225 188 0
225 -186 45 59 129 -188 0
221 222 223 224 225 0
-226 -87 0
-226 7 0
-226 -144 0
-226 49 0
-226 1 0
226 87 -7 144 -49 -1 0
-227 161 0
-227 137 0
-227 133 0
-227 136 0
-227 139 0
227 -161 -137 -133 -136 -139 0
-228 -133 0
-228 -19 0
-228 112 0
-228 -28 0
-228 15 0
228 133 19 -112 28 -15 0
-229 176 0
-229 122 0
-229 -114 0
-229 160 0
-229 187 0
229 -176 -122 114 -160 -187 0
-230 107 0
-230 -180 0
-230 -110 0
-230 -14 0
-230 50 0
230 -107 180 110 14 -50 0
226 227 228 229 230 0
-231 -172 0
-231 78 0
-231 2 0
-231 -142 0
-231 46 0
231 172 -78 -2 142 -46 0
-232 62 0
-232 91 0
-232 -3 0
-232 -124 0
-232 -190 0
232 -62 -91 3 124 190 0
-233 -72 0
-233 -178 0
-233 -106 0
-233 9 0
-233 103 0
233 72 178 106 -9 -103 0
-234 -66 0
-234 -166 0
-234 -46 0
-234 7 0
-234 15 0
234 66 166 46 -7 -15 0
-235 113 0
-235 -79 0
-235 135 0
-235 145 0
-235 -119 0
235 -113 79 -135 -145 119 0
231 232 233 234 235 0
-236 7 0
-236 23 0
-236 59 0
-236 87 0
-236 29 0
236 -7 -23 -59 -87 -29 0
-237 -62 0
-237 -14 0
-237 -157 0
-237 87 0
-237 146 0
237 62 14 157 -87 -146 0
-238 -156 0
-238 133 0
-238 -8 0
-238 -56 0
-238 -112 0
238 156 -133 8 56 112 0
-239 -159 0
-239 -85 0
-239 30 0
-239 120 0
-239 42 0
239 159 85 -30 -120 -42 0
-240 -73 0
-240 -123 0
-240 4 0
-240 -125 0
-240 61 0
240 73 123 -4 125 -61 0
236 237 238 239 240 0
-241 -63 0
-241 169 0
-241 -1 0
-241 119 0
-241 15 0
241 63 -169 1 -119 -15 0
-242 176 0
-242 -89 0
-242 49 0
-242 -144 0
-242 22 0
242 -176 89 -49 144 -22 0
-243 97 0
-243 31 0
-243 109 0
-243 140 0
-243 39 0
243 -97 -31 -109 -140 -39 0
-244 -93 0
-244 16 0
-244 154 0
-244 187 0
-244 -115 0
244 93 -16 -154 -187 115 0
-245 59 0
-245 -183 0
-245 57 0
-245 -158 0
-245 124 0
245 -59 183 -57 158 -124 0
241 242 243 244 245 0
-246 -80 0
-246 -104 0
-246 173 0
-246 10 0
-246 -183 0
246 80 104 -173 -10 183 0
-247 188 0
-247 -177 0
-247 -32 0
-247 165 0
-247 163 0
247 -188 177 32 -165 -163 0
-248 -53 0
-248 137 0
-248 -91 0
-248 75 0
-248 187 0
248 53 -137 91 -75 -187 0
-249 101 0
-249 -57 0
-249 -60 0
-249 109 0
-249 24 0
249 -101 57 60 -109 -24 0
-250 -183 0
-250 -27 0
-250 148 0
-250 -73 0
-250 -54 0
250 183 27 -148 73 54 0
246 247 248 249 250 0
-251 156 0
-251 -165 0
-251 167 0
-251 -39 0
-251 -147 0
251 -156 165 -167 39 147 0
-252 167 0
-252 131 0
-252 149 0
-252 75 0
-252 132 0
252 -167 -131 -149 -75 -132 0
-253 41 0
-253 45 0
-253 -166 0
-253 123 0
-253 -13 0
253 -41 -45 166 -123 13 0
-254 -146 0
-254 -162 0
-254 123 0
-254 174 0
-254 65 0
254 146 162 -123 -174 -65 0
-255 138 0
-255 142 0
-255 -103 0
-255 -99 0
-255 -127 0
255 -138 -142 103 99 127 0
251 252 253 254 255 0
-256 -177 0
-256 64 0
-256 166 0
-256 79 0
-256 63 0
256 177 -64 -166 -79 -63 0
-257 -31 0
-257 25 0
-257 57 0
-257 40 0
-257 97 0
257 31 -25 -57 -40 -97 0
-258 -111 0
-258 -94 0
-258 5 0
-258 147 0
-258 -85 0
258 111 94 -5 -147 85 0
-259 110 0
-259 44 0
-259 -32 0
-259 -42 0
-259 124 0
259 -110 -44 32 42 -124 0
-260 -117 0
-260 68 0
-260 -97 0
-260 -136 0
-260 180 0
260 117 -68 97 136 -180 0
256 257 258 259 260 0
-261 -38 0
-261 79 0
-261 37 0
-261 -137 0
-261 -58 0
261 38 -79 -37 137 58 0
-262 -41 0
-262 -152 0
-262 -161 0
-262 -134 0
-262 -115 0
262 41 152 161 134 115 0
-263 169 0
-263 -51 0
-263 -76 0
-263 164 0
-263 -39 0
263 -169 51 76 -164 39 0
-264 27 0
-264 -100 0
-264 -150 0
-264 6 0
-264 -113 0
264 -27 100 150 -6 113 0
-265 -93 0
-265 -109 0
-265 62 0
-265 183 0
-265 28 0
265 93 109 -62 -183 -28 0
261 262 263 264 265 0
-266 -73 0
-266 127 0
-266 37 0
-266 118 0
-266 -143 0
266 73 -127 -37 -118 143 0
-267 -3 0
-267 10 0
-267 108 0
-267 64 0
-267 165 0
267 3 -10 -108 -64 -165 0
-268 -146 0
-268 -60 0
-268 23 0
-268 123 0
-268 145 0
268 146 60 -23 -123 -145 0
-269 -61 0
-269 90 0
-269 186 0
-269 52 0
-269 -164 0
269 61 -90 -186 -52 164 0
-270 156 0
-270 51 0
-270 -162 0
-270 61 0
-270 58 0
270 -156 -51 162 -61 -58 0
266 267 268 269 270 0
-271 -43 0
-271 60 0
-271 137 0
-271 140 0
-271 -59 0
271 43 -60 -137 -140 59 0
-272 120 0
-272 101 0
-272 15 0
-272 149 0
-272 -52 0
272 -120 -101 -15 -149 52 0
-273 -122 0
-273 -120 0
-273 -164 0
-273 -161 0
-273 50 0
273 122 120 164 161 -50 0
-274 -169 0
-274 59 0
-274 -29 0
-274 171 0
-274 -74 0
274 169 -59 29 -171 74 0
-275 114 0
-275 158 0
-275 151 0
-275 -181 0
-275 -184 0
275 -114 -158 -151 181 184 0
271 272 273 274 275 0
-276 -103 0
-276 -113 0
-276 14 0
-276 -54 0
-276 57 0
276 103 113 -14 54 -57 0
-277 -151 0
-277 -98 0
-277 -167 0
-277 20 0
-277 -78 0
277 151 98 167 -20 78 0
-278 56 0
-278 184 0
-278 -60 0
-278 -74 0
-278 36 0
278 -56 -184 60 74 -36 0
-279 -71 0
-279 -61 0
-279 -179 0
-279 -143 0
-279 -172 0
279 71 61 179 143 172 0
-280 53 0
-280 -36 0
-280 -70 0
-280 -75 0
-280 -39 0
280 -53 36 70 75 39 0
276 277 278 279 280 0
-281 174 0
-281 -157 0
-281 -88 0
-281 137 0
-281 -120 0
281 -174 157 88 -137 120 0
-282 -104 0
-282 77 0
-282 18 0
-282 31 0
-282 3 0
282 104 -77 -18 -31 -3 0
-283 84 0
-283 112 0
-283 24 0
-283 98 0
-283 156 0
283 -84 -112 -24 -98 -156 0
-284 -67 0
-284 -69 0
-284 -100 0
-284 130 0
-284 159 0
284 67 69 100 -130 -159 0
-285 90 0
-285 44 0
-285 154 0
-285 187 0
-285 -45 0
285 -90 -44 -154 -187 45 0
281 282 283 284 285 0
-286 130 0
-286 -171 0
-286 -95 0
-286 6 0
-286 -26 0
286 -130 171 95 -6 26 0
-287 50 0
-287 88 0
-287 -47 0
-287 132 0
-287 -179 0
287 -50 -88 47 -132 179 0
-288 -89 0
-288 190 0
-288 -81 0
-288 123 0
-288 -13 0
288 89 -190 81 -123 13 0
-289 41 0
-289 -154 0
-289 -37 0
-289 36 0
-289 -2 0
289 -41 154 37 -36 2 0
-290 -41 0
-290 -110 0
-290 46 0
-290 111 0
-290 5 0
290 41 110 -46 -111 -5 0
286 287 288 289 290 0
-291 -180 0
-291 -148 0
-291 43 0
-291 -152 0
-291 167 0
291 180 148 -43 152 -167 0
-292 47 0
-292 59 0
-292 -82 0
-292 -62 0
-292 13 0
292 -47 -59 82 62 -13 0
-293 -72 0
-293 161 0
-293 29 0
-293 -146 0
-293 183 0
293 72 -161 -29 146 -183 0
-294 108 0
-294 -58 0
-294 47 0
-294 133 0
-294 -91 0
294 -108 58 -47 -133 91 0
-295 64 0
-295 106 0
-295 102 0
-295 78 0
-295 -148 0
295 -64 -106 -102 -78 148 0
291 292 293 294 295 0
-296 39 0
-296 155 0
-296 94 0
-296 -107 0
-296 -182 0
296 -39 -155 -94 107 182 0
-297 -86 0
-297 40 0
-297 -173 0
-297 113 0
-297 -58 0
297 86 -40 173 -113 58 0
-298 -103 0
-298 -1 0
-298 -155 0
-298 86 0
-298 18 0
298 103 1 155 -86 -18 0
-299 77 0
-299 -146 0
-299 110 0
-299 -69 0
-299 -153 0
299 -77 146 -110 69 153 0
-300 -33 0
-300 67 0
-300 147 0
-300 -123 0
-300 -132 0
300 33 -67 -147 123 132 0
296 297 298 299 300 0
-301 73 0
-301 19 0
-301 12 0
-301 -112 0
-301 -149 0
301 -73 -19 -12 112 149 0
-302 -10 0
-302 -74 0
-302 -134 0
-302 -136 0
-302 -151 0
302 10 74 134 136 151 0
-303 36 0
-303 -21 0
-303 -84 0
-303 -182 0
-303 -66 0
303 -36 21 84 182 66 0
-304 -184 0
-304 177 0
-304 119 0
-304 -155 0
-304 187 0
304 184 -177 -119 155 -187 0
-305 75 0
-305 40 0
-305 -49 0
-305 105 0
-305 -95 0
305 -75 -40 49 -105 95 0
301 302 303 304 305 0
-306 77 0
-306 -64 0
-306 85 0
-306 -98 0
-306 -157 0
306 -77 64 -85 98 157 0
-307 -157 0
-307 102 0
-307 -92 0
-307 179 0
-307 52 0
307 157 -102 92 -179 -52 0
-308 3 0
-308 -125 0
-308 -135 0
-308 -156 0
-308 188 0
308 -3 125 135 156 -188 0
-309 -60 0
-309 96 0
-309 -41 0
-309 -24 0
-309 170 0
309 60 -96 41 24 -170 0
-310 92 0
-310 -36 0
-310 -82 0
-310 179 0
-310 72 0
310 -92 36 82 -179 -72 0
306 307 308 309 310 0
-311 -73 0
-311 46 0
-311 -95 0
-311 -15 0
-311 -155 0
311 73 -46 95 15 155 0
-312 128 0
-312 -115 0
-312 67 0
-312 -117 0
-312 134 0
312 -128 115 -67 117 -134 0
-313 -137 0
-313 135 0
-313 -28 0
-313 5 0
-313 -62 0
313 137 -135 28 -5 62 0
-314 161 0
-314 166 0
-314 -42 0
-314 180 0
-314 141 0
314 -161 -166 42 -180 -141 0
-315 179 0
-315 -105 0
-315 55 0
-315 67 0
-315 -5 0
315 -179 105 -55 -67 5 0
311 312 313 314 315 0
-316 -88 0
-316 148 0
-316 -40 0
-316 95 0
-316 -189 0
316 88 -148 40 -95 189 0
-317 55 0
-317 -8 0
-317 -2 0
-317 33 0
-317 -105 0
317 -55 8 2 -33 105 0
-318 75 0
-318 170 0
-318 10 0
-318 28 0
-318 -90 0
318 -75 -170 -10 -28 90 0
-319 -133 0
-319 -29 0
-319 65 0
-319 70 0
-319 -25 0
319 133 29 -65 -70 25 0
-320 -115 0
-320 -107 0
-320 53 0
-320 67 0
-320 -12 0
320 115 107 -53 -67 12 0
316 317 318 319 320 0
-321 67 0
-321 -45 0
-321 -103 0
-321 -70 0
-321 52 0
321 -67 45 103 70 -52 0
-322 -21 0
-322 168 0
-322 -1 0
-322 -184 0
-322 -110 0
322 21 -168 1 184 110 0
-323 66 0
-323 117 0
-323 58 0
-323 -100 0
-323 -65 0
323 -66 -117 -58 100 65 0
-324 -133 0
-324 -91 0
-324 -167 0
-324 95 0
-324 -153 0
324 133 91 167 -95 153 0
-325 -105 0
-325 -125 0
-325 -81 0
-325 -19 0
-325 122 0
325 105 125 81 19 -122 0
321 322 323 324 325 0
-326 -72 0
-326 -99 0
-326 -166 0
-326 -73 0
-326 11 0
326 72 99 166 73 -11 0
-327 142 0
-327 -55 0
-327 -133 0
-327 3 0
-327 -48 0
327 -142 55 133 -3 48 0
-328 -159 0
-328 -38 0
-328 168 0
-328 81 0
-328 -48 0
328 159 38 -168 -81 48 0
-329 147 0
-329 -177 0
-329 -136 0
-329 -60 0
-329 -33 0
329 -147 177 136 60 33 0
-330 190 0
-330 -154 0
-330 -157 0
-330 162 0
-330 131 0
330 -190 154 157 -162 -131 0
326 327 328 329 330 0
-331 -101 0
-331 -60 0
-331 -62 0
-331 -52 0
-331 87 0
331 101 60 62 52 -87 0
-332 139 0
-332 -8 0
-332 17 0
-332 79 0
-332 -161 0
332 -139 8 -17 -79 161 0
-333 -132 0
-333 47 0
-333 149 0
-333 -114 0
-333 165 0
333 132 -47 -149 114 -165 0
-334 133 0
-334 -75 0
-334 54 0
-334 -124 0
-334 89 0
334 -133 75 -54 124 -89 0
-335 -134 0
-335 177 0
-335 109 0
-335 42 0
-335 -38 0
335 134 -177 -109 -42 38 0
331 332 333 334 335 0
-336 59 0
-336 6 0
-336 49 0
-336 -5 0
-336 77 0
336 -59 -6 -49 5 -77 0
-337 4 0
-337 -121 0
-337 148 0
-337 -26 0
-337 -117 0
337 -4 121 -148 26 117 0
-338 -63 0
-338 62 0
-338 39 0
-338 -17 0
-338 -55 0
338 63 -62 -39 17 55 0
-339 73 0
-339 169 0
-339 143 0
-339 -55 0
-339 -63 0
339 -73 -169 -143 55 63 0
-340 126 0
-340 -53 0
-340 -52 0
-340 -94 0
-340 -157 0
340 -126 53 52 94 157 0
336 337 338 339 340 0
-341 -14 0
-341 10 0
-341 -90 0
-341 -74 0
-341 157 0
341 14 -10 90 74 -157 0
-342 65 0
-342 170 0
-342 -139 0
-342 182 0
-342 -39 0
342 -65 -170 139 -182 39 0
-343 114 0
-343 80 0
-343 69 0
-343 -142 0
-343 -38 0
343 -114 -80 -69 142 38 0
-344 171 0
-344 44 0
-344 81 0
-344 50 0
-344 60 0
344 -171 -44 -81 -50 -60 0
-345 -32 0
-345 62 0
-345 180 0
-345 27 0
-345 58 0
345 32 -62 -180 -27 -58 0
341 342 343 344 345 0
-346 89 0
-346 -138 0
-346 190 0
-346 -145 0
-346 67 0
346 -89 138 -190 145 -67 0
-347 -45 0
-347 189 0
-347 141 0
-347 114 0
-347 77 0
347 45 -189 -141 -114 -77 0
-348 27 0
-348 6 0
-348 65 0
-348 -125 0
-348 189 0
348 -27 -6 -65 125 -189 0
-349 -15 0
-349 -34 0
-349 -142 0
-349 -41 0
-349 -33 0
349 15 34 142 41 33 0
-350 128 0
-350 -7 0
-350 -148 0
-350 -90 0
-350 -56 0
350 -128 7 148 90 56 0
346 347 348 349 350 0
-351 -80 0
-351 -64 0
-351 138 0
-351 -167 0
-351 -117 0
351 80 64 -138 167 117 0
-352 -174 0
-352 137 0
-352 63 0
-352 -54 0
-352 50 0
352 174 -137 -63 54 -50 0
-353 101 0
-353 119 0
-353 -116 0
-353 40 0
-353 -35 0
353 -101 -119 116 -40 35 0
-354 -142 0
-354 -170 0
-354 -109 0
-354 46 0
-354 146 0
354 142 170 109 -46 -146 0
-355 -105 0
-355 83 0
-355 -15 0
-355 -142 0
-355 180 0
355 105 -83 15 142 -180 0
351 352 353 354 355 0
-356 -182 0
-356 142 0
-356 144 0
-356 99 0
-356 -122 0
356 182 -142 -144 -99 122 0
-357 20 0
-357 60 0
-357 -153 0
-357 22 0
-357 -50 0
357 -20 -60 153 -22 50 0
-358 -29 0
-358 -116 0
-358 63 0
-358 45 0
-358 -159 0
358 29 116 -63 -45 159 0
-359 27 0
-359 95 0
-359 -31 0
-359 175 0
-359 -82 0
359 -27 -95 31 -175 82 0
-360 170 0
-360 85 0
-360 81 0
-360 59 0
-360 175 0
360 -170 -85 -81 -59 -175 0
356 357 358 359 360 0
-361 2 0
-361 -62 0
-361 150 0
-361 43 0
-361 -21 0
361 -2 62 -150 -43 21 0
-362 31 0
-362 188 0
-362 -126 0
-362 156 0
-362 -137 0
362 -31 -188 126 -156 137 0
-363 -89 0
-363 63 0
-363 -144 0
-363 172 0
-363 -116 0
363 89 -63 144 -172 116 0
-364 -61 0
-364 53 0
-364 -173 0
-364 -45 0
-364 117 0
364 61 -53 173 45 -117 0
-365 -180 0
-365 -16 0
-365 83 0
-365 -46 0
-365 47 0
365 180 16 -83 46 -47 0
361 362 363 364 365 0
-366 144 0
-366 2 0
-366 112 0
-366 -99 0
-366 -41 0
366 -144 -2 -112 99 41 0
-367 -139 0
-367 112 0
-367 -14 0
-367 -142 0
-367 -12 0
367 139 -112 14 142 12 0
-368 -162 0
-368 -152 0
-368 178 0
-368 -22 0
-368 -36 0
368 162 152 -178 22 36 0
-369 -127 0
-369 180 0
-369 150 0
-369 -37 0
-369 67 0
369 127 -180 -150 37 -67 0
-370 -133 0
-370 -78 0
-370 45 0
-370 -32 0
-370 121 0
370 133 78 -45 32 -121 0
366 367 368 369 370 0
-371 -37 0
-371 -123 0
-371 89 0
-371 141 0
-371 -161 0
371 37 123 -89 -141 161 0
-372 107 0
-372 31 0
-372 160 0
-372 -122 0
-372 -19 0
372 -107 -31 -160 122 19 0
-373 -145 0
-373 18 0
-373 9 0
-373 87 0
-373 72 0
373 145 -18 -9 -87 -72 0
-374 90 0
-374 -146 0
-374 137 0
-374 84 0
-374 -99 0
374 -90 146 -137 -84 99 0
-375 -82 0
-375 -55 0
-375 140 0
-375 75 0
-375 157 0
375 82 55 -140 -75 -157 0
371 372 373 374 375 0
-376 48 0
-376 32 0
-376 -11 0
-376 -79 0
-376 123 0
376 -48 -32 11 79 -123 0
-377 -64 0
-377 55 0
-377 104 0
-377 13 0
-377 -90 0
377 64 -55 -104 -13 90 0
-378 -100 0
-378 10 0
-378 -115 0
-378 73 0
-378 -31 0
378 100 -10 115 -73 31 0
-379 -9 0
-379 2 0
-379 -69 0
-379 118 0
-379 134 0
379 9 -2 69 -118 -134 0
-380 -26 0
-380 140 0
-380 -181 0
-380 -63 0
-380 -36 0
380 26 -140 181 63 36 0
376 377 378 379 380 0
-381 166 0
-381 40 0
-381 -20 0
-381 142 0
-381 82 0
381 -166 -40 20 -142 -82 0
-382 29 0
-382 -136 0
-382 116 0
-382 -150 0
-382 104 0
382 -29 136 -116 150 -104 0
-383 -77 0
-383 -6 0
-383 -63 0
-383 102 0
-383 95 0
383 77 6 63 -102 -95 0
-384 189 0
-384 123 0
-384 100 0
-384 -84 0
-384 9 0
384 -189 -123 -100 84 -9 0
-385 -6 0
-385 -77 0
-385 -124 0
-385 -91 0
-385 133 0
385 6 77 124 91 -133 0
381 382 383 384 385 0
-386 12 0
-386 -10 0
-386 -124 0
-386 57 0
-386 -44 0
386 -12 10 124 -57 44 0
-387 -181 0
-387 36 0
-387 55 0
-387 -84 0
-387 130 0
387 181 -36 -55 84 -130 0
-388 -29 0
-388 -90 0
-388 -161 0
-388 -30 0
-388 121 0
388 29 90 161 30 -121 0
-389 -50 0
-389 12 0
-389 -61 0
-389 139 0
-389 -70 0
389 50 -12 61 -139 70 0
-390 -166 0
-390 35 0
-390 165 0
-390 -69 0
-390 170 0
390 166 -35 -165 69 -170 0
386 387 388 389 390 0
-391 72 0
-391 94 0
-391 170 0
-391 158 0
-391 -25 0
391 -72 -94 -170 -158 25 0
-392 173 0
-392 187 0
-392 142 0
-392 -82 0
-392 8 0
392 -173 -187 -142 82 -8 0
-393 36 0
-393 -23 0
-393 -55 0
-393 -108 0
-393 -169 0
393 -36 23 55 108 169 0
-394 -174 0
-394 40 0
-394 43 0
-394 97 0
-394 172 0
394 174 -40 -43 -97 -172 0
-395 -78 0
-395 128 0
-395 -80 0
-395 -117 0
-395 -79 0
395 78 -128 80 117 79 0
391 392 393 394 395 0
-396 -174 0
-396 -36 0
-396 -27 0
-396 -21 0
-396 176 0
396 174 36 27 21 -176 0
-397 -158 0
-397 -8 0
-397 127 0
-397 -19 0
-397 137 0
397 158 8 -127 19 -137 0
-398 80 0
-398 116 0
-398 -11 0
-398 -83 0
-398 -181 0
398 -80 -116 11 83 181 0
-399 -139 0
-399 37 0
-399 -117 0
-399 3 0
-399 -66 0
399 139 -37 117 -3 66 0
-400 -85 0
-400 -95 0
-400 29 0
-400 25 0
-400 183 0
400 85 95 -29 -25 -183 0
396 397 398 399 400 0
-401 -137 0
-401 125 0
-401 66 0
-401 5 0
-401 37 0
401 137 -125 -66 -5 -37 0
-402 27 0
-402 -129 0
-402 -184 0
-402 68 0
-402 -143 0
402 -27 129 184 -68 143 0
-403 130 0
-403 -158 0
-403 -110 0
-403 93 0
-403 2 0
403 -130 158 110 -93 -2 0
-404 38 0
-404 -92 0
-404 -90 0
-404 -171 0
-404 -187 0
404 -38 92 90 171 187 0
-405 26 0
-405 -2 0
-405 43 0
-405 -52 0
-405 133 0
405 -26 2 -43 52 -133 0
401 402 403 404 405 0
-406 -143 0
-406 -183 0
-406 -68 0
-406 -179 0
-406 -176 0
406 143 183 68 179 176 0
-407 -43 0
-407 132 0
-407 118 0
-407 -76 0
-407 140 0
407 43 -132 -118 76 -140 0
-408 152 0
-408 -34 0
-408 -9 0
-408 121 0
-408 -132 0
408 -152 34 9 -121 132 0
-409 57 0
-409 -16 0
-409 86 0
-409 160 0
-409 -50 0
409 -57 16 -86 -160 50 0
-410 144 0
-410 -57 0
-410 -60 0
-410 -175 0
-410 119 0
410 -144 57 60 175 -119 0
406 407 408 409 410 0
-411 -80 0
-411 56 0
-411 88 0
-411 185 0
-411 -73 0
411 80 -56 -88 -185 73 0
-412 55 0
-412 189 0
-412 -44 0
-412 -93 0
-412 -137 0
412 -55 -189 44 93 137 0
-413 61 0
-413 -92 0
-413 53 0
-413 171 0
-413 -187 0
413 -61 92 -53 -171 187 0
-414 136 0
-414 -89 0
-414 -38 0
-414 -155 0
-414 -158 0
414 -136 89 38 155 158 0
-415 -107 0
-415 184 0
-415 173 0
-415 -93 0
-415 -155 0
415 107 -184 -173 93 155 0
411 412 413 414 415 0
-416 -136 0
-416 3 0
-416 120 0
-416 -143 0
-416 166 0
416 136 -3 -120 143 -166 0
-417 -114 0
-417 -105 0
-417 37 0
-417 181 0
-417 134 0
417 114 105 -37 -181 -134 0
-418 -179 0
-418 -186 0
-418 -135 0
-418 -174 0
-418 -99 0
418 179 186 135 174 99 0
-419 70 0
-419 75 0
-419 143 0
-419 141 0
-419 40 0
419 -70 -75 -143 -141 -40 0
-420 110 0
-420 -60 0
-420 68 0
-420 35 0
-420 31 0
420 -110 60 -68 -35 -31 0
416 417 418 419 420 0
-421 -5 0
-421 64 0
-421 -116 0
-421 -135 0
-421 161 0
421 5 -64 116 135 -161 0
-422 -66 0
-422 19 0
-422 119 0
-422 86 0
-422 130 0
422 66 -19 -119 -86 -130 0
-423 189 0
-423 -100 0
-423 32 0
-423 51 0
-423 -7 0
423 -189 100 -32 -51 7 0
-424 -146 0
-424 135 0
-424 87 0
-424 -110 0
-424 -169 0
424 146 -135 -87 110 169 0
-425 12 0
-425 -138 0
-425 -147 0
-425 -155 0
-425 72 0
425 -12 138 147 155 -72 0
421 422 423 424 425 0
-426 52 0
-426 14 0
-426 153 0
-426 -22 0
-426 145 0
426 -52 -14 -153 22 -145 0
-427 34 0
-427 161 0
-427 53 0
-427 10 0
-427 -30 0
427 -34 -161 -53 -10 30 0
-428 147 0
-428 158 0
-428 67 0
-428 177 0
-428 -71 0
428 -147 -158 -67 -177 71 0
-429 38 0
-429 46 0
-429 -183 0
-429 135 0
-429 124 0
429 -38 -46 183 -135 -124 0
-430 -130 0
-430 -62 0
-430 158 0
-430 -149 0
-430 -127 0
430 130 62 -158 149 127 0
426 427 428 429 430 0
